NAME: instance_11
TYPE: TSP
COMMENT: 11-city problem
DIMENSION: 11
EDGE_WEIGHT_TYPE: EUC_2D
NODE_COORD_SECTION
0 159 493
1 458 64
2 408 506
3 421 545
4 981 254
5 487 728
6 387 648
7 425 323
8 393 799
9 894 301
10 634 246
EOF
